p cnf 521 1244
a 327 440 333 336 341 344 348 351 357 360 364 368 305 274 286 298 376 379 489 384 389 392 396 399 405 408 412 415 420 423 427 430 7 13 24 30 2 1 40 18 6 12 35 23 29 50 45 60 55 70 65 80 75 85 90 95 105 100 110 115 120 130 125 135 140 145 150 180 162 154 158 175 167 171 190 185 200 195 209 205 219 214 224 229 234 244 239 249 254 259 273 268 264 285 280 297 292 304 315 310 319 323 0
d 330 440 2 0
d 383 2 489 319 323 13 0
d 373 273 285 297 304 315 0
d 3 2 0
d 4 1 2 0
d 5 1 2 0
d 8 7 0
d 9 6 7 0
d 10 6 7 0
d 11 1 2 6 7 0
d 14 13 0
d 15 12 13 0
d 16 12 13 0
d 17 1 2 6 7 12 13 0
d 19 6 12 0
d 20 18 6 12 0
d 21 18 6 12 0
d 22 1 2 6 7 12 13 18 0
d 25 24 0
d 26 23 24 0
d 27 23 24 0
d 28 1 2 6 7 12 13 18 23 24 0
d 31 30 0
d 32 29 30 0
d 33 29 30 0
d 34 1 2 6 7 12 13 18 23 24 29 30 0
d 36 23 29 0
d 37 35 23 29 0
d 38 35 23 29 0
d 39 1 2 6 7 12 13 18 23 24 29 30 35 0
d 41 18 35 0
d 42 40 18 35 0
d 43 40 18 35 0
d 44 1 2 6 7 12 13 18 23 24 29 30 35 40 0
d 46 7 12 0
d 47 45 7 12 0
d 48 45 7 12 0
d 49 1 2 6 7 12 13 18 23 24 29 30 35 40 45 0
d 51 45 35 0
d 52 50 45 35 0
d 53 50 45 35 0
d 54 1 2 6 7 12 13 18 23 24 29 30 35 40 45 50 0
d 56 6 13 0
d 57 55 6 13 0
d 58 55 6 13 0
d 59 1 2 6 7 12 13 18 23 24 29 30 35 40 45 50 55 0
d 61 55 35 0
d 62 60 55 35 0
d 63 60 55 35 0
d 64 1 2 6 7 12 13 18 23 24 29 30 35 40 45 50 55 60 0
d 66 7 13 0
d 67 65 7 13 0
d 68 65 7 13 0
d 69 1 2 6 7 12 13 18 23 24 29 30 35 40 45 50 55 60 65 0
d 71 65 35 0
d 72 70 65 35 0
d 73 70 65 35 0
d 74 1 2 6 7 12 13 18 23 24 29 30 35 40 45 50 55 60 65 70 0
d 76 24 29 0
d 77 75 24 29 0
d 78 75 24 29 0
d 79 1 2 6 7 12 13 18 23 24 29 30 35 40 45 50 55 60 65 70 75 0
d 81 18 75 0
d 82 80 18 75 0
d 83 80 18 75 0
d 84 1 2 6 7 12 13 18 23 24 29 30 35 40 45 50 55 60 65 70 75 80 0
d 86 45 75 0
d 87 85 45 75 0
d 88 85 45 75 0
d 89 1 2 6 7 12 13 18 23 24 29 30 35 40 45 50 55 60 65 70 75 80 85 0
d 91 55 75 0
d 92 90 55 75 0
d 93 90 55 75 0
d 94 1 2 6 7 12 13 18 23 24 29 30 35 40 45 50 55 60 65 70 75 80 85 90 0
d 96 65 75 0
d 97 95 65 75 0
d 98 95 65 75 0
d 99 1 2 6 7 12 13 18 23 24 29 30 35 40 45 50 55 60 65 70 75 80 85 90 95 0
d 101 23 30 0
d 102 100 23 30 0
d 103 100 23 30 0
d 104 1 2 6 7 12 13 18 23 24 29 30 35 40 45 50 55 60 65 70 75 80 85 90 95 100 0
d 106 18 100 0
d 107 105 18 100 0
d 108 105 18 100 0
d 109 1 2 6 7 12 13 18 23 24 29 30 35 40 45 50 55 60 65 70 75 80 85 90 95 100 105 0
d 111 45 100 0
d 112 110 45 100 0
d 113 110 45 100 0
d 114 1 2 6 7 12 13 18 23 24 29 30 35 40 45 50 55 60 65 70 75 80 85 90 95 100 105 110 0
d 116 55 100 0
d 117 115 55 100 0
d 118 115 55 100 0
d 119 1 2 6 7 12 13 18 23 24 29 30 35 40 45 50 55 60 65 70 75 80 85 90 95 100 105 110 115 0
d 121 65 100 0
d 122 120 65 100 0
d 123 120 65 100 0
d 124 1 2 6 7 12 13 18 23 24 29 30 35 40 45 50 55 60 65 70 75 80 85 90 95 100 105 110 115 120 0
d 126 24 30 0
d 127 125 24 30 0
d 128 125 24 30 0
d 129 1 2 6 7 12 13 18 23 24 29 30 35 40 45 50 55 60 65 70 75 80 85 90 95 100 105 110 115 120 125 0
d 131 18 125 0
d 132 130 18 125 0
d 133 130 18 125 0
d 134 1 2 6 7 12 13 18 23 24 29 30 35 40 45 50 55 60 65 70 75 80 85 90 95 100 105 110 115 120 125 130 0
d 136 45 125 0
d 137 135 45 125 0
d 138 135 45 125 0
d 139 1 2 6 7 12 13 18 23 24 29 30 35 40 45 50 55 60 65 70 75 80 85 90 95 100 105 110 115 120 125 130 135 0
d 141 55 125 0
d 142 140 55 125 0
d 143 140 55 125 0
d 144 1 2 6 7 12 13 18 23 24 29 30 35 40 45 50 55 60 65 70 75 80 85 90 95 100 105 110 115 120 125 130 135 140 0
d 146 65 125 0
d 147 145 65 125 0
d 148 145 65 125 0
d 149 1 2 6 7 12 13 18 23 24 29 30 35 40 45 50 55 60 65 70 75 80 85 90 95 100 105 110 115 120 125 130 135 140 145 0
d 151 150 2 0
d 152 150 2 0
d 153 1 2 6 7 12 13 18 23 24 29 30 35 40 45 50 55 60 65 70 75 80 85 90 95 100 105 110 115 120 125 130 135 140 145 150 0
d 155 154 7 0
d 156 154 7 0
d 157 1 2 6 7 12 13 18 23 24 29 30 35 40 45 50 55 60 65 70 75 80 85 90 95 100 105 110 115 120 125 130 135 140 145 150 154 0
d 159 158 13 0
d 160 158 13 0
d 161 1 2 6 7 12 13 18 23 24 29 30 35 40 45 50 55 60 65 70 75 80 85 90 95 100 105 110 115 120 125 130 135 140 145 150 154 158 0
d 163 154 158 0
d 164 162 154 158 0
d 165 162 154 158 0
d 166 1 2 6 7 12 13 18 23 24 29 30 35 40 45 50 55 60 65 70 75 80 85 90 95 100 105 110 115 120 125 130 135 140 145 150 154 158 162 0
d 168 167 24 0
d 169 167 24 0
d 170 1 2 6 7 12 13 18 23 24 29 30 35 40 45 50 55 60 65 70 75 80 85 90 95 100 105 110 115 120 125 130 135 140 145 150 154 158 162 167 0
d 172 171 30 0
d 173 171 30 0
d 174 1 2 6 7 12 13 18 23 24 29 30 35 40 45 50 55 60 65 70 75 80 85 90 95 100 105 110 115 120 125 130 135 140 145 150 154 158 162 167 171 0
d 176 167 171 0
d 177 175 167 171 0
d 178 175 167 171 0
d 179 1 2 6 7 12 13 18 23 24 29 30 35 40 45 50 55 60 65 70 75 80 85 90 95 100 105 110 115 120 125 130 135 140 145 150 154 158 162 167 171 175 0
d 181 162 175 0
d 182 180 162 175 0
d 183 180 162 175 0
d 184 1 2 6 7 12 13 18 23 24 29 30 35 40 45 50 55 60 65 70 75 80 85 90 95 100 105 110 115 120 125 130 135 140 145 150 154 158 162 167 171 175 180 0
d 186 7 158 0
d 187 185 7 158 0
d 188 185 7 158 0
d 189 1 2 6 7 12 13 18 23 24 29 30 35 40 45 50 55 60 65 70 75 80 85 90 95 100 105 110 115 120 125 130 135 140 145 150 154 158 162 167 171 175 180 185 0
d 191 185 175 0
d 192 190 185 175 0
d 193 190 185 175 0
d 194 1 2 6 7 12 13 18 23 24 29 30 35 40 45 50 55 60 65 70 75 80 85 90 95 100 105 110 115 120 125 130 135 140 145 150 154 158 162 167 171 175 180 185 190 0
d 196 154 13 0
d 197 195 154 13 0
d 198 195 154 13 0
d 199 1 2 6 7 12 13 18 23 24 29 30 35 40 45 50 55 60 65 70 75 80 85 90 95 100 105 110 115 120 125 130 135 140 145 150 154 158 162 167 171 175 180 185 190 195 0
d 201 195 175 0
d 202 200 195 175 0
d 203 200 195 175 0
d 204 1 2 6 7 12 13 18 23 24 29 30 35 40 45 50 55 60 65 70 75 80 85 90 95 100 105 110 115 120 125 130 135 140 145 150 154 158 162 167 171 175 180 185 190 195 200 0
d 206 205 7 13 0
d 207 205 7 13 0
d 208 1 2 6 7 12 13 18 23 24 29 30 35 40 45 50 55 60 65 70 75 80 85 90 95 100 105 110 115 120 125 130 135 140 145 150 154 158 162 167 171 175 180 185 190 195 200 205 0
d 210 205 175 0
d 211 209 205 175 0
d 212 209 205 175 0
d 213 1 2 6 7 12 13 18 23 24 29 30 35 40 45 50 55 60 65 70 75 80 85 90 95 100 105 110 115 120 125 130 135 140 145 150 154 158 162 167 171 175 180 185 190 195 200 205 209 0
d 215 24 171 0
d 216 214 24 171 0
d 217 214 24 171 0
d 218 1 2 6 7 12 13 18 23 24 29 30 35 40 45 50 55 60 65 70 75 80 85 90 95 100 105 110 115 120 125 130 135 140 145 150 154 158 162 167 171 175 180 185 190 195 200 205 209 214 0
d 220 162 214 0
d 221 219 162 214 0
d 222 219 162 214 0
d 223 1 2 6 7 12 13 18 23 24 29 30 35 40 45 50 55 60 65 70 75 80 85 90 95 100 105 110 115 120 125 130 135 140 145 150 154 158 162 167 171 175 180 185 190 195 200 205 209 214 219 0
d 225 185 214 0
d 226 224 185 214 0
d 227 224 185 214 0
d 228 1 2 6 7 12 13 18 23 24 29 30 35 40 45 50 55 60 65 70 75 80 85 90 95 100 105 110 115 120 125 130 135 140 145 150 154 158 162 167 171 175 180 185 190 195 200 205 209 214 219 224 0
d 230 195 214 0
d 231 229 195 214 0
d 232 229 195 214 0
d 233 1 2 6 7 12 13 18 23 24 29 30 35 40 45 50 55 60 65 70 75 80 85 90 95 100 105 110 115 120 125 130 135 140 145 150 154 158 162 167 171 175 180 185 190 195 200 205 209 214 219 224 229 0
d 235 205 214 0
d 236 234 205 214 0
d 237 234 205 214 0
d 238 1 2 6 7 12 13 18 23 24 29 30 35 40 45 50 55 60 65 70 75 80 85 90 95 100 105 110 115 120 125 130 135 140 145 150 154 158 162 167 171 175 180 185 190 195 200 205 209 214 219 224 229 234 0
d 240 167 30 0
d 241 239 167 30 0
d 242 239 167 30 0
d 243 1 2 6 7 12 13 18 23 24 29 30 35 40 45 50 55 60 65 70 75 80 85 90 95 100 105 110 115 120 125 130 135 140 145 150 154 158 162 167 171 175 180 185 190 195 200 205 209 214 219 224 229 234 239 0
d 245 162 239 0
d 246 244 162 239 0
d 247 244 162 239 0
d 248 1 2 6 7 12 13 18 23 24 29 30 35 40 45 50 55 60 65 70 75 80 85 90 95 100 105 110 115 120 125 130 135 140 145 150 154 158 162 167 171 175 180 185 190 195 200 205 209 214 219 224 229 234 239 244 0
d 250 185 239 0
d 251 249 185 239 0
d 252 249 185 239 0
d 253 1 2 6 7 12 13 18 23 24 29 30 35 40 45 50 55 60 65 70 75 80 85 90 95 100 105 110 115 120 125 130 135 140 145 150 154 158 162 167 171 175 180 185 190 195 200 205 209 214 219 224 229 234 239 244 249 0
d 255 195 239 0
d 256 254 195 239 0
d 257 254 195 239 0
d 258 1 2 6 7 12 13 18 23 24 29 30 35 40 45 50 55 60 65 70 75 80 85 90 95 100 105 110 115 120 125 130 135 140 145 150 154 158 162 167 171 175 180 185 190 195 200 205 209 214 219 224 229 234 239 244 249 254 0
d 260 205 239 0
d 261 259 205 239 0
d 262 259 205 239 0
d 263 1 2 6 7 12 13 18 23 24 29 30 35 40 45 50 55 60 65 70 75 80 85 90 95 100 105 110 115 120 125 130 135 140 145 150 154 158 162 167 171 175 180 185 190 195 200 205 209 214 219 224 229 234 239 244 249 254 259 0
d 265 264 24 30 0
d 266 264 24 30 0
d 267 1 2 6 7 12 13 18 23 24 29 30 35 40 45 50 55 60 65 70 75 80 85 90 95 100 105 110 115 120 125 130 135 140 145 150 154 158 162 167 171 175 180 185 190 195 200 205 209 214 219 224 229 234 239 244 249 254 259 264 0
d 269 185 264 0
d 270 268 185 264 0
d 271 268 185 264 0
d 272 1 2 6 7 12 13 18 23 24 29 30 35 40 45 50 55 60 65 70 75 80 85 90 95 100 105 110 115 120 125 130 135 140 145 150 154 158 162 167 171 175 180 185 190 195 200 205 209 214 219 224 229 234 239 244 249 254 259 264 268 0
d 275 150 274 0
d 276 150 274 268 0
d 277 273 150 274 268 0
d 278 273 150 274 268 0
d 279 1 2 6 7 12 13 18 23 24 29 30 35 40 45 50 55 60 65 70 75 80 85 90 95 100 105 110 115 120 125 130 135 140 145 150 154 158 162 167 171 175 180 185 190 195 200 205 209 214 219 224 229 234 239 244 249 254 259 264 268 273 274 0
d 281 195 264 0
d 282 280 195 264 0
d 283 280 195 264 0
d 284 1 2 6 7 12 13 18 23 24 29 30 35 40 45 50 55 60 65 70 75 80 85 90 95 100 105 110 115 120 125 130 135 140 145 150 154 158 162 167 171 175 180 185 190 195 200 205 209 214 219 224 229 234 239 244 249 254 259 264 268 273 274 280 0
d 287 150 286 0
d 288 150 286 280 0
d 289 285 150 286 280 0
d 290 285 150 286 280 0
d 291 1 2 6 7 12 13 18 23 24 29 30 35 40 45 50 55 60 65 70 75 80 85 90 95 100 105 110 115 120 125 130 135 140 145 150 154 158 162 167 171 175 180 185 190 195 200 205 209 214 219 224 229 234 239 244 249 254 259 264 268 273 274 280 285 286 0
d 293 205 264 0
d 294 292 205 264 0
d 295 292 205 264 0
d 296 1 2 6 7 12 13 18 23 24 29 30 35 40 45 50 55 60 65 70 75 80 85 90 95 100 105 110 115 120 125 130 135 140 145 150 154 158 162 167 171 175 180 185 190 195 200 205 209 214 219 224 229 234 239 244 249 254 259 264 268 273 274 280 285 286 292 0
d 299 150 298 0
d 300 150 298 292 0
d 301 297 150 298 292 0
d 302 297 150 298 292 0
d 303 1 2 6 7 12 13 18 23 24 29 30 35 40 45 50 55 60 65 70 75 80 85 90 95 100 105 110 115 120 125 130 135 140 145 150 154 158 162 167 171 175 180 185 190 195 200 205 209 214 219 224 229 234 239 244 249 254 259 264 268 273 274 280 285 286 292 297 298 0
d 306 150 305 0
d 307 304 150 305 0
d 308 304 150 305 0
d 309 1 2 6 7 12 13 18 23 24 29 30 35 40 45 50 55 60 65 70 75 80 85 90 95 100 105 110 115 120 125 130 135 140 145 150 154 158 162 167 171 175 180 185 190 195 200 205 209 214 219 224 229 234 239 244 249 254 259 264 268 273 274 280 285 286 292 297 298 304 305 0
d 311 162 264 0
d 312 310 162 264 0
d 313 310 162 264 0
d 314 1 2 6 7 12 13 18 23 24 29 30 35 40 45 50 55 60 65 70 75 80 85 90 95 100 105 110 115 120 125 130 135 140 145 150 154 158 162 167 171 175 180 185 190 195 200 205 209 214 219 224 229 234 239 244 249 254 259 264 268 273 274 280 285 286 292 297 298 304 305 310 0
d 316 315 310 0
d 317 315 310 0
d 318 1 2 6 7 12 13 18 23 24 29 30 35 40 45 50 55 60 65 70 75 80 85 90 95 100 105 110 115 120 125 130 135 140 145 150 154 158 162 167 171 175 180 185 190 195 200 205 209 214 219 224 229 234 239 244 249 254 259 264 268 273 274 280 285 286 292 297 298 304 305 310 315 0
d 320 319 175 0
d 321 319 175 0
d 322 1 2 6 7 12 13 18 23 24 29 30 35 40 45 50 55 60 65 70 75 80 85 90 95 100 105 110 115 120 125 130 135 140 145 150 154 158 162 167 171 175 180 185 190 195 200 205 209 214 219 224 229 234 239 244 249 254 259 264 268 273 274 280 285 286 292 297 298 304 305 310 315 319 0
d 324 323 154 0
d 325 323 154 0
d 326 1 2 6 7 12 13 18 23 24 29 30 35 40 45 50 55 60 65 70 75 80 85 90 95 100 105 110 115 120 125 130 135 140 145 150 154 158 162 167 171 175 180 185 190 195 200 205 209 214 219 224 229 234 239 244 249 254 259 264 268 273 274 280 285 286 292 297 298 304 305 310 315 319 323 0
d 328 150 327 0
d 329 150 327 180 0
d 331 440 2 190 0
d 332 150 327 180 440 2 190 0
d 334 150 333 0
d 335 150 333 200 0
d 337 150 336 0
d 338 150 336 209 0
d 339 150 333 200 336 209 0
d 340 150 327 180 440 2 190 333 200 336 209 0
d 342 150 341 0
d 343 150 341 219 0
d 345 150 344 0
d 346 150 344 224 0
d 347 150 341 219 344 224 0
d 349 150 348 0
d 350 150 348 229 0
d 352 150 351 0
d 353 150 351 234 0
d 354 150 348 229 351 234 0
d 355 150 341 219 344 224 348 229 351 234 0
d 356 150 327 180 440 2 190 333 200 336 209 341 219 344 224 348 229 351 234 0
d 358 150 357 0
d 359 150 357 244 0
d 361 150 360 0
d 362 150 360 249 0
d 363 150 357 244 360 249 0
d 365 150 364 0
d 366 150 364 0
d 367 150 364 254 0
d 369 150 368 0
d 370 150 368 259 0
d 371 150 364 254 368 259 0
d 372 150 357 244 360 249 364 254 368 259 0
d 374 150 357 244 360 249 364 254 368 259 273 285 297 304 315 0
d 375 150 327 180 440 2 190 333 200 336 209 341 219 344 224 348 229 351 234 357 244 360 249 364 254 368 259 273 285 297 304 315 0
d 377 2 376 0
d 378 2 376 180 0
d 380 2 379 0
d 381 2 379 190 0
d 382 2 376 180 379 190 0
d 385 2 384 0
d 386 2 384 209 0
d 387 2 489 319 323 13 384 209 0
d 388 2 376 180 379 190 489 319 323 13 384 209 0
d 390 2 389 0
d 391 2 389 219 0
d 393 2 392 0
d 394 2 392 224 0
d 395 2 389 219 392 224 0
d 397 2 396 0
d 398 2 396 229 0
d 400 2 399 0
d 401 2 399 234 0
d 402 2 396 229 399 234 0
d 403 2 389 219 392 224 396 229 399 234 0
d 404 2 376 180 379 190 489 319 323 13 384 209 389 219 392 224 396 229 399 234 0
d 406 2 405 0
d 407 2 405 244 0
d 409 2 408 0
d 410 2 408 249 0
d 411 2 405 244 408 249 0
d 413 2 412 0
d 414 2 412 254 0
d 416 2 415 0
d 417 2 415 259 0
d 418 2 412 254 415 259 0
d 419 2 405 244 408 249 412 254 415 259 0
d 421 2 420 0
d 422 2 420 310 0
d 424 2 423 0
d 425 2 423 268 0
d 426 2 420 310 423 268 0
d 428 2 427 0
d 429 2 427 280 0
d 431 2 430 0
d 432 2 430 292 0
d 433 2 427 280 430 292 0
d 434 2 420 310 423 268 427 280 430 292 0
d 435 2 405 244 408 249 412 254 415 259 420 310 423 268 427 280 430 292 0
d 436 2 376 180 379 190 489 319 323 13 384 209 389 219 392 224 396 229 399 234 405 244 408 249 412 254 415 259 420 310 423 268 427 280 430 292 0
d 437 150 327 180 440 2 190 333 200 336 209 341 219 344 224 348 229 351 234 357 244 360 249 364 254 368 259 273 285 297 304 315 376 379 489 319 323 13 384 389 392 396 399 405 408 412 415 420 310 423 268 427 280 430 292 0
d 438 1 327 0
d 439 1 327 40 0
d 441 1 440 0
d 442 1 440 50 0
d 443 1 327 40 440 50 0
d 444 1 333 0
d 445 1 333 60 0
d 446 1 336 0
d 447 1 336 70 0
d 448 1 333 60 336 70 0
d 449 1 327 40 440 50 333 60 336 70 0
d 450 1 341 0
d 451 1 341 80 0
d 452 1 344 0
d 453 1 344 85 0
d 454 1 341 80 344 85 0
d 455 1 348 0
d 456 1 348 90 0
d 457 1 351 0
d 458 1 351 95 0
d 459 1 348 90 351 95 0
d 460 1 341 80 344 85 348 90 351 95 0
d 461 1 327 40 440 50 333 60 336 70 341 80 344 85 348 90 351 95 0
d 462 1 357 0
d 463 1 357 105 0
d 464 1 360 0
d 465 1 360 110 0
d 466 1 357 105 360 110 0
d 467 1 364 0
d 468 1 364 115 0
d 469 1 368 0
d 470 1 368 120 0
d 471 1 364 115 368 120 0
d 472 1 357 105 360 110 364 115 368 120 0
d 473 1 305 0
d 474 1 305 130 0
d 475 1 274 0
d 476 1 274 135 0
d 477 1 305 130 274 135 0
d 478 1 286 0
d 479 1 286 140 0
d 480 1 298 0
d 481 1 298 145 0
d 482 1 286 140 298 145 0
d 483 1 305 130 274 135 286 140 298 145 0
d 484 1 357 105 360 110 364 115 368 120 305 130 274 135 286 140 298 145 0
d 485 1 327 40 440 50 333 60 336 70 341 80 344 85 348 90 351 95 357 105 360 110 364 115 368 120 305 130 274 135 286 140 298 145 0
d 486 2 376 40 0
d 487 2 379 50 0
d 488 2 376 40 379 50 0
d 490 2 489 0
d 491 2 489 60 0
d 492 2 384 70 0
d 493 2 489 60 384 70 0
d 494 2 376 40 379 50 489 60 384 70 0
d 495 2 389 80 0
d 496 2 392 85 0
d 497 2 389 80 392 85 0
d 498 2 396 90 0
d 499 2 399 95 0
d 500 2 396 90 399 95 0
d 501 2 389 80 392 85 396 90 399 95 0
d 502 2 376 40 379 50 489 60 384 70 389 80 392 85 396 90 399 95 0
d 503 2 405 105 0
d 504 2 408 110 0
d 505 2 405 105 408 110 0
d 506 2 412 115 0
d 507 2 415 120 0
d 508 2 412 115 415 120 0
d 509 2 405 105 408 110 412 115 415 120 0
d 510 2 420 130 0
d 511 2 423 135 0
d 512 2 420 130 423 135 0
d 513 2 427 140 0
d 514 2 430 145 0
d 515 2 427 140 430 145 0
d 516 2 420 130 423 135 427 140 430 145 0
d 517 2 405 105 408 110 412 115 415 120 420 130 423 135 427 140 430 145 0
d 518 2 376 40 379 50 489 60 384 70 389 80 392 85 396 90 399 95 405 105 408 110 412 115 415 120 420 130 423 135 427 140 430 145 0
d 519 1 327 40 440 50 333 60 336 70 341 80 344 85 348 90 351 95 357 105 360 110 364 115 368 120 305 130 274 135 286 140 298 145 2 376 379 489 384 389 392 396 399 405 408 412 415 420 423 427 430 0
d 520 150 327 180 440 2 190 333 200 336 209 341 219 344 224 348 229 351 234 357 244 360 249 364 254 368 259 273 285 297 304 315 376 379 489 319 323 13 384 389 392 396 399 405 408 412 415 420 310 423 268 427 280 430 292 1 40 50 60 70 80 85 90 95 105 110 115 120 305 130 274 135 286 140 298 145 0
d 521 1 2 6 7 12 13 18 23 24 29 30 35 40 45 50 55 60 65 70 75 80 85 90 95 100 105 110 115 120 125 130 135 140 145 150 154 158 162 167 171 175 180 185 190 195 200 205 209 214 219 224 229 234 239 244 249 254 259 264 268 273 274 280 285 286 292 297 298 304 305 310 315 319 323 327 440 333 336 341 344 348 351 357 360 364 368 376 379 489 384 389 392 396 399 405 408 412 415 420 423 427 430 0
3 2 0
-3 -2 0
4 -1 -3 0
4 1 3 0
-4 -1 3 0
-4 1 -3 0
5 4 0
-5 -4 0
8 7 0
-8 -7 0
9 -6 -8 0
9 6 8 0
-9 -6 8 0
-9 6 -8 0
10 9 0
-10 -9 0
11 -5 0
11 -10 0
-11 5 10 0
14 13 0
-14 -13 0
15 -12 -14 0
15 12 14 0
-15 -12 14 0
-15 12 -14 0
16 15 0
-16 -15 0
17 -11 0
17 -16 0
-17 11 16 0
-19 6 0
-19 12 0
19 -6 -12 0
20 -18 -19 0
20 18 19 0
-20 -18 19 0
-20 18 -19 0
21 20 0
-21 -20 0
22 -17 0
22 -21 0
-22 17 21 0
25 24 0
-25 -24 0
26 -23 -25 0
26 23 25 0
-26 -23 25 0
-26 23 -25 0
27 26 0
-27 -26 0
28 -22 0
28 -27 0
-28 22 27 0
31 30 0
-31 -30 0
32 -29 -31 0
32 29 31 0
-32 -29 31 0
-32 29 -31 0
33 32 0
-33 -32 0
34 -28 0
34 -33 0
-34 28 33 0
-36 23 0
-36 29 0
36 -23 -29 0
37 -35 -36 0
37 35 36 0
-37 -35 36 0
-37 35 -36 0
38 37 0
-38 -37 0
39 -34 0
39 -38 0
-39 34 38 0
-41 18 0
-41 35 0
41 -18 -35 0
42 -40 -41 0
42 40 41 0
-42 -40 41 0
-42 40 -41 0
43 42 0
-43 -42 0
44 -39 0
44 -43 0
-44 39 43 0
-46 7 0
-46 12 0
46 -7 -12 0
47 -45 -46 0
47 45 46 0
-47 -45 46 0
-47 45 -46 0
48 47 0
-48 -47 0
49 -44 0
49 -48 0
-49 44 48 0
-51 45 0
-51 35 0
51 -45 -35 0
52 -50 -51 0
52 50 51 0
-52 -50 51 0
-52 50 -51 0
53 52 0
-53 -52 0
54 -49 0
54 -53 0
-54 49 53 0
-56 6 0
-56 13 0
56 -6 -13 0
57 -55 -56 0
57 55 56 0
-57 -55 56 0
-57 55 -56 0
58 57 0
-58 -57 0
59 -54 0
59 -58 0
-59 54 58 0
-61 55 0
-61 35 0
61 -55 -35 0
62 -60 -61 0
62 60 61 0
-62 -60 61 0
-62 60 -61 0
63 62 0
-63 -62 0
64 -59 0
64 -63 0
-64 59 63 0
-66 7 0
-66 13 0
66 -7 -13 0
67 -65 -66 0
67 65 66 0
-67 -65 66 0
-67 65 -66 0
68 67 0
-68 -67 0
69 -64 0
69 -68 0
-69 64 68 0
-71 65 0
-71 35 0
71 -65 -35 0
72 -70 -71 0
72 70 71 0
-72 -70 71 0
-72 70 -71 0
73 72 0
-73 -72 0
74 -69 0
74 -73 0
-74 69 73 0
-76 24 0
-76 29 0
76 -24 -29 0
77 -75 -76 0
77 75 76 0
-77 -75 76 0
-77 75 -76 0
78 77 0
-78 -77 0
79 -74 0
79 -78 0
-79 74 78 0
-81 18 0
-81 75 0
81 -18 -75 0
82 -80 -81 0
82 80 81 0
-82 -80 81 0
-82 80 -81 0
83 82 0
-83 -82 0
84 -79 0
84 -83 0
-84 79 83 0
-86 45 0
-86 75 0
86 -45 -75 0
87 -85 -86 0
87 85 86 0
-87 -85 86 0
-87 85 -86 0
88 87 0
-88 -87 0
89 -84 0
89 -88 0
-89 84 88 0
-91 55 0
-91 75 0
91 -55 -75 0
92 -90 -91 0
92 90 91 0
-92 -90 91 0
-92 90 -91 0
93 92 0
-93 -92 0
94 -89 0
94 -93 0
-94 89 93 0
-96 65 0
-96 75 0
96 -65 -75 0
97 -95 -96 0
97 95 96 0
-97 -95 96 0
-97 95 -96 0
98 97 0
-98 -97 0
99 -94 0
99 -98 0
-99 94 98 0
-101 23 0
-101 30 0
101 -23 -30 0
102 -100 -101 0
102 100 101 0
-102 -100 101 0
-102 100 -101 0
103 102 0
-103 -102 0
104 -99 0
104 -103 0
-104 99 103 0
-106 18 0
-106 100 0
106 -18 -100 0
107 -105 -106 0
107 105 106 0
-107 -105 106 0
-107 105 -106 0
108 107 0
-108 -107 0
109 -104 0
109 -108 0
-109 104 108 0
-111 45 0
-111 100 0
111 -45 -100 0
112 -110 -111 0
112 110 111 0
-112 -110 111 0
-112 110 -111 0
113 112 0
-113 -112 0
114 -109 0
114 -113 0
-114 109 113 0
-116 55 0
-116 100 0
116 -55 -100 0
117 -115 -116 0
117 115 116 0
-117 -115 116 0
-117 115 -116 0
118 117 0
-118 -117 0
119 -114 0
119 -118 0
-119 114 118 0
-121 65 0
-121 100 0
121 -65 -100 0
122 -120 -121 0
122 120 121 0
-122 -120 121 0
-122 120 -121 0
123 122 0
-123 -122 0
124 -119 0
124 -123 0
-124 119 123 0
-126 24 0
-126 30 0
126 -24 -30 0
127 -125 -126 0
127 125 126 0
-127 -125 126 0
-127 125 -126 0
128 127 0
-128 -127 0
129 -124 0
129 -128 0
-129 124 128 0
-131 18 0
-131 125 0
131 -18 -125 0
132 -130 -131 0
132 130 131 0
-132 -130 131 0
-132 130 -131 0
133 132 0
-133 -132 0
134 -129 0
134 -133 0
-134 129 133 0
-136 45 0
-136 125 0
136 -45 -125 0
137 -135 -136 0
137 135 136 0
-137 -135 136 0
-137 135 -136 0
138 137 0
-138 -137 0
139 -134 0
139 -138 0
-139 134 138 0
-141 55 0
-141 125 0
141 -55 -125 0
142 -140 -141 0
142 140 141 0
-142 -140 141 0
-142 140 -141 0
143 142 0
-143 -142 0
144 -139 0
144 -143 0
-144 139 143 0
-146 65 0
-146 125 0
146 -65 -125 0
147 -145 -146 0
147 145 146 0
-147 -145 146 0
-147 145 -146 0
148 147 0
-148 -147 0
149 -144 0
149 -148 0
-149 144 148 0
151 -150 -3 0
151 150 3 0
-151 -150 3 0
-151 150 -3 0
152 151 0
-152 -151 0
153 -149 0
153 -152 0
-153 149 152 0
155 -154 -8 0
155 154 8 0
-155 -154 8 0
-155 154 -8 0
156 155 0
-156 -155 0
157 -153 0
157 -156 0
-157 153 156 0
159 -158 -14 0
159 158 14 0
-159 -158 14 0
-159 158 -14 0
160 159 0
-160 -159 0
161 -157 0
161 -160 0
-161 157 160 0
-163 154 0
-163 158 0
163 -154 -158 0
164 -162 -163 0
164 162 163 0
-164 -162 163 0
-164 162 -163 0
165 164 0
-165 -164 0
166 -161 0
166 -165 0
-166 161 165 0
168 -167 -25 0
168 167 25 0
-168 -167 25 0
-168 167 -25 0
169 168 0
-169 -168 0
170 -166 0
170 -169 0
-170 166 169 0
172 -171 -31 0
172 171 31 0
-172 -171 31 0
-172 171 -31 0
173 172 0
-173 -172 0
174 -170 0
174 -173 0
-174 170 173 0
-176 167 0
-176 171 0
176 -167 -171 0
177 -175 -176 0
177 175 176 0
-177 -175 176 0
-177 175 -176 0
178 177 0
-178 -177 0
179 -174 0
179 -178 0
-179 174 178 0
-181 162 0
-181 175 0
181 -162 -175 0
182 -180 -181 0
182 180 181 0
-182 -180 181 0
-182 180 -181 0
183 182 0
-183 -182 0
184 -179 0
184 -183 0
-184 179 183 0
-186 7 0
-186 158 0
186 -7 -158 0
187 -185 -186 0
187 185 186 0
-187 -185 186 0
-187 185 -186 0
188 187 0
-188 -187 0
189 -184 0
189 -188 0
-189 184 188 0
-191 185 0
-191 175 0
191 -185 -175 0
192 -190 -191 0
192 190 191 0
-192 -190 191 0
-192 190 -191 0
193 192 0
-193 -192 0
194 -189 0
194 -193 0
-194 189 193 0
-196 154 0
-196 13 0
196 -154 -13 0
197 -195 -196 0
197 195 196 0
-197 -195 196 0
-197 195 -196 0
198 197 0
-198 -197 0
199 -194 0
199 -198 0
-199 194 198 0
-201 195 0
-201 175 0
201 -195 -175 0
202 -200 -201 0
202 200 201 0
-202 -200 201 0
-202 200 -201 0
203 202 0
-203 -202 0
204 -199 0
204 -203 0
-204 199 203 0
206 -205 -66 0
206 205 66 0
-206 -205 66 0
-206 205 -66 0
207 206 0
-207 -206 0
208 -204 0
208 -207 0
-208 204 207 0
-210 205 0
-210 175 0
210 -205 -175 0
211 -209 -210 0
211 209 210 0
-211 -209 210 0
-211 209 -210 0
212 211 0
-212 -211 0
213 -208 0
213 -212 0
-213 208 212 0
-215 24 0
-215 171 0
215 -24 -171 0
216 -214 -215 0
216 214 215 0
-216 -214 215 0
-216 214 -215 0
217 216 0
-217 -216 0
218 -213 0
218 -217 0
-218 213 217 0
-220 162 0
-220 214 0
220 -162 -214 0
221 -219 -220 0
221 219 220 0
-221 -219 220 0
-221 219 -220 0
222 221 0
-222 -221 0
223 -218 0
223 -222 0
-223 218 222 0
-225 185 0
-225 214 0
225 -185 -214 0
226 -224 -225 0
226 224 225 0
-226 -224 225 0
-226 224 -225 0
227 226 0
-227 -226 0
228 -223 0
228 -227 0
-228 223 227 0
-230 195 0
-230 214 0
230 -195 -214 0
231 -229 -230 0
231 229 230 0
-231 -229 230 0
-231 229 -230 0
232 231 0
-232 -231 0
233 -228 0
233 -232 0
-233 228 232 0
-235 205 0
-235 214 0
235 -205 -214 0
236 -234 -235 0
236 234 235 0
-236 -234 235 0
-236 234 -235 0
237 236 0
-237 -236 0
238 -233 0
238 -237 0
-238 233 237 0
-240 167 0
-240 30 0
240 -167 -30 0
241 -239 -240 0
241 239 240 0
-241 -239 240 0
-241 239 -240 0
242 241 0
-242 -241 0
243 -238 0
243 -242 0
-243 238 242 0
-245 162 0
-245 239 0
245 -162 -239 0
246 -244 -245 0
246 244 245 0
-246 -244 245 0
-246 244 -245 0
247 246 0
-247 -246 0
248 -243 0
248 -247 0
-248 243 247 0
-250 185 0
-250 239 0
250 -185 -239 0
251 -249 -250 0
251 249 250 0
-251 -249 250 0
-251 249 -250 0
252 251 0
-252 -251 0
253 -248 0
253 -252 0
-253 248 252 0
-255 195 0
-255 239 0
255 -195 -239 0
256 -254 -255 0
256 254 255 0
-256 -254 255 0
-256 254 -255 0
257 256 0
-257 -256 0
258 -253 0
258 -257 0
-258 253 257 0
-260 205 0
-260 239 0
260 -205 -239 0
261 -259 -260 0
261 259 260 0
-261 -259 260 0
-261 259 -260 0
262 261 0
-262 -261 0
263 -258 0
263 -262 0
-263 258 262 0
265 -264 -126 0
265 264 126 0
-265 -264 126 0
-265 264 -126 0
266 265 0
-266 -265 0
267 -263 0
267 -266 0
-267 263 266 0
-269 185 0
-269 264 0
269 -185 -264 0
270 -268 -269 0
270 268 269 0
-270 -268 269 0
-270 268 -269 0
271 270 0
-271 -270 0
272 -267 0
272 -271 0
-272 267 271 0
-275 150 0
-275 274 0
275 -150 -274 0
-276 275 0
-276 268 0
276 -275 -268 0
277 -273 -276 0
277 273 276 0
-277 -273 276 0
-277 273 -276 0
278 277 0
-278 -277 0
279 -272 0
279 -278 0
-279 272 278 0
-281 195 0
-281 264 0
281 -195 -264 0
282 -280 -281 0
282 280 281 0
-282 -280 281 0
-282 280 -281 0
283 282 0
-283 -282 0
284 -279 0
284 -283 0
-284 279 283 0
-287 150 0
-287 286 0
287 -150 -286 0
-288 287 0
-288 280 0
288 -287 -280 0
289 -285 -288 0
289 285 288 0
-289 -285 288 0
-289 285 -288 0
290 289 0
-290 -289 0
291 -284 0
291 -290 0
-291 284 290 0
-293 205 0
-293 264 0
293 -205 -264 0
294 -292 -293 0
294 292 293 0
-294 -292 293 0
-294 292 -293 0
295 294 0
-295 -294 0
296 -291 0
296 -295 0
-296 291 295 0
-299 150 0
-299 298 0
299 -150 -298 0
-300 299 0
-300 292 0
300 -299 -292 0
301 -297 -300 0
301 297 300 0
-301 -297 300 0
-301 297 -300 0
302 301 0
-302 -301 0
303 -296 0
303 -302 0
-303 296 302 0
-306 150 0
-306 305 0
306 -150 -305 0
307 -304 -306 0
307 304 306 0
-307 -304 306 0
-307 304 -306 0
308 307 0
-308 -307 0
309 -303 0
309 -308 0
-309 303 308 0
-311 162 0
-311 264 0
311 -162 -264 0
312 -310 -311 0
312 310 311 0
-312 -310 311 0
-312 310 -311 0
313 312 0
-313 -312 0
314 -309 0
314 -313 0
-314 309 313 0
316 -315 -310 0
316 315 310 0
-316 -315 310 0
-316 315 -310 0
317 316 0
-317 -316 0
318 -314 0
318 -317 0
-318 314 317 0
320 -319 -175 0
320 319 175 0
-320 -319 175 0
-320 319 -175 0
321 320 0
-321 -320 0
322 -318 0
322 -321 0
-322 318 321 0
324 -323 -154 0
324 323 154 0
-324 -323 154 0
-324 323 -154 0
325 324 0
-325 -324 0
326 -322 0
326 -325 0
-326 322 325 0
-328 150 0
-328 327 0
328 -150 -327 0
-329 328 0
-329 180 0
329 -328 -180 0
-331 330 0
-331 190 0
331 -330 -190 0
332 -329 0
332 -331 0
-332 329 331 0
-334 150 0
-334 333 0
334 -150 -333 0
-335 334 0
-335 200 0
335 -334 -200 0
-337 150 0
-337 336 0
337 -150 -336 0
-338 337 0
-338 209 0
338 -337 -209 0
339 -335 0
339 -338 0
-339 335 338 0
340 -332 0
340 -339 0
-340 332 339 0
-342 150 0
-342 341 0
342 -150 -341 0
-343 342 0
-343 219 0
343 -342 -219 0
-345 150 0
-345 344 0
345 -150 -344 0
-346 345 0
-346 224 0
346 -345 -224 0
347 -343 0
347 -346 0
-347 343 346 0
-349 150 0
-349 348 0
349 -150 -348 0
-350 349 0
-350 229 0
350 -349 -229 0
-352 150 0
-352 351 0
352 -150 -351 0
-353 352 0
-353 234 0
353 -352 -234 0
354 -350 0
354 -353 0
-354 350 353 0
355 -347 0
355 -354 0
-355 347 354 0
356 -340 0
356 -355 0
-356 340 355 0
-358 150 0
-358 357 0
358 -150 -357 0
-359 358 0
-359 244 0
359 -358 -244 0
-361 150 0
-361 360 0
361 -150 -360 0
-362 361 0
-362 249 0
362 -361 -249 0
363 -359 0
363 -362 0
-363 359 362 0
365 -150 0
365 -364 0
-365 150 364 0
366 365 0
-366 -365 0
-367 366 0
-367 254 0
367 -366 -254 0
-369 150 0
-369 368 0
369 -150 -368 0
-370 369 0
-370 259 0
370 -369 -259 0
371 -367 0
371 -370 0
-371 367 370 0
372 -363 0
372 -371 0
-372 363 371 0
374 -372 0
374 -373 0
-374 372 373 0
375 -356 0
375 -374 0
-375 356 374 0
-377 2 0
-377 376 0
377 -2 -376 0
-378 377 0
-378 180 0
378 -377 -180 0
-380 2 0
-380 379 0
380 -2 -379 0
-381 380 0
-381 190 0
381 -380 -190 0
382 -378 0
382 -381 0
-382 378 381 0
-385 2 0
-385 384 0
385 -2 -384 0
-386 385 0
-386 209 0
386 -385 -209 0
387 -383 0
387 -386 0
-387 383 386 0
388 -382 0
388 -387 0
-388 382 387 0
-390 2 0
-390 389 0
390 -2 -389 0
-391 390 0
-391 219 0
391 -390 -219 0
-393 2 0
-393 392 0
393 -2 -392 0
-394 393 0
-394 224 0
394 -393 -224 0
395 -391 0
395 -394 0
-395 391 394 0
-397 2 0
-397 396 0
397 -2 -396 0
-398 397 0
-398 229 0
398 -397 -229 0
-400 2 0
-400 399 0
400 -2 -399 0
-401 400 0
-401 234 0
401 -400 -234 0
402 -398 0
402 -401 0
-402 398 401 0
403 -395 0
403 -402 0
-403 395 402 0
404 -388 0
404 -403 0
-404 388 403 0
-406 2 0
-406 405 0
406 -2 -405 0
-407 406 0
-407 244 0
407 -406 -244 0
-409 2 0
-409 408 0
409 -2 -408 0
-410 409 0
-410 249 0
410 -409 -249 0
411 -407 0
411 -410 0
-411 407 410 0
-413 2 0
-413 412 0
413 -2 -412 0
-414 413 0
-414 254 0
414 -413 -254 0
-416 2 0
-416 415 0
416 -2 -415 0
-417 416 0
-417 259 0
417 -416 -259 0
418 -414 0
418 -417 0
-418 414 417 0
419 -411 0
419 -418 0
-419 411 418 0
-421 2 0
-421 420 0
421 -2 -420 0
-422 421 0
-422 310 0
422 -421 -310 0
-424 2 0
-424 423 0
424 -2 -423 0
-425 424 0
-425 268 0
425 -424 -268 0
426 -422 0
426 -425 0
-426 422 425 0
-428 2 0
-428 427 0
428 -2 -427 0
-429 428 0
-429 280 0
429 -428 -280 0
-431 2 0
-431 430 0
431 -2 -430 0
-432 431 0
-432 292 0
432 -431 -292 0
433 -429 0
433 -432 0
-433 429 432 0
434 -426 0
434 -433 0
-434 426 433 0
435 -419 0
435 -434 0
-435 419 434 0
436 -404 0
436 -435 0
-436 404 435 0
437 -375 0
437 -436 0
-437 375 436 0
-438 1 0
-438 327 0
438 -1 -327 0
-439 438 0
-439 40 0
439 -438 -40 0
-441 1 0
-441 440 0
441 -1 -440 0
-442 441 0
-442 50 0
442 -441 -50 0
443 -439 0
443 -442 0
-443 439 442 0
-444 1 0
-444 333 0
444 -1 -333 0
-445 444 0
-445 60 0
445 -444 -60 0
-446 1 0
-446 336 0
446 -1 -336 0
-447 446 0
-447 70 0
447 -446 -70 0
448 -445 0
448 -447 0
-448 445 447 0
449 -443 0
449 -448 0
-449 443 448 0
-450 1 0
-450 341 0
450 -1 -341 0
-451 450 0
-451 80 0
451 -450 -80 0
-452 1 0
-452 344 0
452 -1 -344 0
-453 452 0
-453 85 0
453 -452 -85 0
454 -451 0
454 -453 0
-454 451 453 0
-455 1 0
-455 348 0
455 -1 -348 0
-456 455 0
-456 90 0
456 -455 -90 0
-457 1 0
-457 351 0
457 -1 -351 0
-458 457 0
-458 95 0
458 -457 -95 0
459 -456 0
459 -458 0
-459 456 458 0
460 -454 0
460 -459 0
-460 454 459 0
461 -449 0
461 -460 0
-461 449 460 0
-462 1 0
-462 357 0
462 -1 -357 0
-463 462 0
-463 105 0
463 -462 -105 0
-464 1 0
-464 360 0
464 -1 -360 0
-465 464 0
-465 110 0
465 -464 -110 0
466 -463 0
466 -465 0
-466 463 465 0
-467 1 0
-467 364 0
467 -1 -364 0
-468 467 0
-468 115 0
468 -467 -115 0
-469 1 0
-469 368 0
469 -1 -368 0
-470 469 0
-470 120 0
470 -469 -120 0
471 -468 0
471 -470 0
-471 468 470 0
472 -466 0
472 -471 0
-472 466 471 0
-473 1 0
-473 305 0
473 -1 -305 0
-474 473 0
-474 130 0
474 -473 -130 0
-475 1 0
-475 274 0
475 -1 -274 0
-476 475 0
-476 135 0
476 -475 -135 0
477 -474 0
477 -476 0
-477 474 476 0
-478 1 0
-478 286 0
478 -1 -286 0
-479 478 0
-479 140 0
479 -478 -140 0
-480 1 0
-480 298 0
480 -1 -298 0
-481 480 0
-481 145 0
481 -480 -145 0
482 -479 0
482 -481 0
-482 479 481 0
483 -477 0
483 -482 0
-483 477 482 0
484 -472 0
484 -483 0
-484 472 483 0
485 -461 0
485 -484 0
-485 461 484 0
-486 377 0
-486 40 0
486 -377 -40 0
-487 380 0
-487 50 0
487 -380 -50 0
488 -486 0
488 -487 0
-488 486 487 0
-490 2 0
-490 489 0
490 -2 -489 0
-491 490 0
-491 60 0
491 -490 -60 0
-492 385 0
-492 70 0
492 -385 -70 0
493 -491 0
493 -492 0
-493 491 492 0
494 -488 0
494 -493 0
-494 488 493 0
-495 390 0
-495 80 0
495 -390 -80 0
-496 393 0
-496 85 0
496 -393 -85 0
497 -495 0
497 -496 0
-497 495 496 0
-498 397 0
-498 90 0
498 -397 -90 0
-499 400 0
-499 95 0
499 -400 -95 0
500 -498 0
500 -499 0
-500 498 499 0
501 -497 0
501 -500 0
-501 497 500 0
502 -494 0
502 -501 0
-502 494 501 0
-503 406 0
-503 105 0
503 -406 -105 0
-504 409 0
-504 110 0
504 -409 -110 0
505 -503 0
505 -504 0
-505 503 504 0
-506 413 0
-506 115 0
506 -413 -115 0
-507 416 0
-507 120 0
507 -416 -120 0
508 -506 0
508 -507 0
-508 506 507 0
509 -505 0
509 -508 0
-509 505 508 0
-510 421 0
-510 130 0
510 -421 -130 0
-511 424 0
-511 135 0
511 -424 -135 0
512 -510 0
512 -511 0
-512 510 511 0
-513 428 0
-513 140 0
513 -428 -140 0
-514 431 0
-514 145 0
514 -431 -145 0
515 -513 0
515 -514 0
-515 513 514 0
516 -512 0
516 -515 0
-516 512 515 0
517 -509 0
517 -516 0
-517 509 516 0
518 -502 0
518 -517 0
-518 502 517 0
519 -485 0
519 -518 0
-519 485 518 0
520 -437 -519 0
520 437 519 0
-520 -437 519 0
-520 437 -519 0
521 -326 0
521 -520 0
-521 326 520 0
521 0
